\* PC3 *\
Minimize
OBJ: 16 PCA_IO3000 + 8 PCA_IO3100 + 14 PCA_IO3200 + 8 PCA_IO3210
 + 4 PCA_IO3300 + 8 PCA_IO3310 + 16 PCA_IO3400 + 12 PCA_IO3500 + 44 PCA_IO3510
Subject To
_C1: 16 PCA_IO3000 + 8 PCA_IO3400 + 4 PCA_IO3500 + 24 PCA_IO3510 >= 16
_C2: 8 PCA_IO3100 + 8 PCA_IO3400 + 4 PCA_IO3500 + 10 PCA_IO3510 >= 8
_dummy: __dummy = 0
_C3: __dummy >= 0
_C4: __dummy >= 0
_C5: __dummy >= 0
_C6: __dummy >= 0
_C7: 14 PCA_IO3200 + 8 PCA_IO3210 + 4 PCA_IO3500 + 8 PCA_IO3510 >= 14
_C8: 4 PCA_IO3300 + 8 PCA_IO3310 + 2 PCA_IO3510 >= 4
Bounds
0 <= PCA_IO3000
0 <= PCA_IO3100
0 <= PCA_IO3200
0 <= PCA_IO3210
0 <= PCA_IO3300
0 <= PCA_IO3310
0 <= PCA_IO3400
0 <= PCA_IO3500
0 <= PCA_IO3510
__dummy = 0
Generals
PCA_IO3000
PCA_IO3100
PCA_IO3200
PCA_IO3210
PCA_IO3300
PCA_IO3310
PCA_IO3400
PCA_IO3500
PCA_IO3510
End
